
 102   30
  10   10   10   10   10   10   10   10   10   10   10   10   10   10   10   10   10   10   10   10   10   10   10   10   10   10   10   10   10   10

   0   0   0   0   0   0   0   0   0   0   0   0   0   0   0   0   0   0   0   0   0   0   0   0   0   0   0   0   0   0   0  24 2 3 4 5 6 7 8 9 11 12 14 15 16 18 19 20 22 25 27 28 34 39 41 45 
   2   1   0   0   0   0   0   0   1   0   0   0   0   0   0   0   0   0   0   0   0   0   0   0   0   0   0   0   1   0   0  19 75 70 65 57 53 52 50 47 46 43 42 40 38 37 29 24 23 21 13 
   9   0   0   0   0   0   0   0   0   1   0   2   0   0   0   0   0   3   0   0   0   0   0   0   0   0   0   0   0   0   0  12 70 63 56 52 49 48 46 36 29 26 24 10 
   8   0   2   0   0   0   0   0   0   0   0   6   0   0   0   0   2   0   0   1   0   0   0   0   0   0   0   0   0   0   0   9 70 63 56 55 51 49 46 35 10 
   7   0   0   0   0   0   0   1   0   4   0   0   0   0   0   0   0   0   0   7   0   0   0   0   0   0   0   0   0   0   0  13 101 70 57 55 53 51 42 38 36 32 30 29 24 
   4   0   0   0   0   0   0   0   0   0   0   0   1   0   0   0   0   0   0   0   0   0   0   0   0   0   0   0   0   0   2  19 101 100 98 97 91 75 73 64 63 61 58 56 55 53 51 47 42 30 26 
   9   0   0   0   0   0   0   0   0   0   0   0   0   0   0   1   0   0   0   0   0   1   0   0   0   0   0   1   0   0   0   9 74 70 54 52 47 33 31 30 17 
   8   0   0   0   0   0   0   0   0   0   0   0   0   0   0   0   0   0   2   0   0   0   2   0   0   0   0   0   0   1   0  17 97 75 74 73 69 68 65 64 63 58 57 56 55 54 42 36 32 
   1   0   6   0   1   0   0   0   0   7   0   0   0   0   5   0   0   0   0   0   0   0   0   0   0   0   0   0   0   0   0  12 101 68 66 60 57 53 52 43 42 36 24 23 
   1   0   3   0   0   0   0   0   0   0   1   0   0   0   6   0   0   0   0   0   0   0   0   0   0   1   1   7   0   0   0  11 101 84 74 68 66 64 53 47 44 38 17 
   8   1   0   0   5   0   0   0   0   6   0   8   0   1   0   8   0   0   0   0   0   0   0   0   0   0   9   4   0   8   0  12 95 92 70 69 68 61 57 53 47 42 38 24 
   1   0   0   0   0   0   0   0   0   0   0   0   0   0   5   4   0   0   6   0   0   0   0   0   0   0   0   0   0   0   5  21 101 99 98 97 96 93 92 91 75 73 72 70 69 68 65 63 61 60 56 55 38 
   1   0   0   0   0   0   0   0   0   0   0   0   5   0   0   6   0   0   0   0   0   0   0   0   0   0   0  10   0   3   0  19 101 100 99 95 94 90 89 74 72 69 63 61 60 59 55 54 51 49 44 
   1   0   0   3   0   0   0   0   0   0   0   0   0   0   0   0   0   0   0   5   0   0   0   0   0   0   0   0   0   0   5  14 97 95 93 91 74 68 66 61 60 59 58 55 42 38 
   5   0   0   3   0   1   1   0   0   0   0   0   0   0   0   0   0   0   0   0   0   7   0   0   0   0   0   0   0   7   0  16 100 99 96 95 93 75 74 68 63 60 58 56 55 54 49 46 
   6   4   6   0   0   0   0   0   0   0   0   0   7   0   0   0   0   5   0   0   0   0   0   0   0   0   0   5   0   0   0  18 101 100 99 98 97 96 95 94 89 84 69 66 62 61 59 57 56 49 
   7   7   0   0   0   0   0   0   0   0   0   0   0   0   0   0   0   0   0   0   1   0   0   1   0   0   0   0   0   0   6  14 100 98 97 96 94 93 92 86 73 61 60 58 43 42 
   7   3   0   0   0   0   0   0   0   0   0   0   0   0   0   0   0   0   0   0   0   0   0   7   0   0   0   0   0   6   0  12 96 95 90 88 75 74 69 68 62 59 58 32 
   1   9   8   0   0   0   0   0   0   0   2   0   8   0   0   0   0   0   0   0   0   0   0   0   0   0   0   0   0   0   0  12 101 96 95 93 84 63 61 58 56 51 49 43 
   9  10   0   0   0   9   0   4   0   0   0   0   0   6   0   0   0   0   4   0   7   0   0   0   0   0   0   0   0   0   0  10 101 99 98 91 70 68 60 58 57 36 
   8   9   0   0   0   0   0   0   0   0   0   0   0   0   0   6   0   0   0   0   0   0   0   0   0   0   0   0  10   0   0  11 101 98 91 87 86 84 67 64 56 54 51 
   8   0   0   0   0   0   0   0   0   0   0   9   0   0   0   0   0   3   4   0   0   0   0   0   0   0   0   0   0   0   0  15 95 94 91 90 89 87 86 85 75 73 72 71 61 58 54 
   2   0   0   0   0   0   0   0   0   0   0   0   0   0   0   0   0   0   7   0   0   3   0   0   2   0   9   0   0   0   0  14 100 94 93 91 89 87 86 84 73 71 61 59 58 54 
   9   0   0   0   0   5   0   0   0   0   0   0   0   0   0   0   0   0   0   0   0   0   0   8   0   0   0   6   4   0   0  19 99 98 97 94 93 91 90 89 87 86 85 84 83 79 73 72 71 67 62 
   4   0   0   0   0   0   0   0   0   0   0   0   5   0   0   0   0   0   0   0   0   0   0   0   6   0   7   0   0   0   0  16 95 94 90 89 88 86 84 81 73 72 71 69 68 67 66 55 
   5   0   0   0   0   0   0   0   0   5   0   0   0   0   0   0   0   0   0   0   0   0   0   8   0   0   0   0   0   0   0  15 96 95 93 92 90 89 87 86 85 74 69 68 67 60 54 
   3   0   0   0   0   0   0   0   0   0   0   4   6   0   4   0   0   2   0   0   0   0   6   0   0   0   0   0   0   0   9  14 98 93 91 90 89 87 86 85 83 82 75 67 60 54 
   2   0   0   0   0  10   0   0   0   6   0   0   8   0   8   8   0   0   0   0   0   0   0   0   0   0   0   0   0   0   0  13 93 92 91 90 89 88 87 74 73 72 70 62 55 
   6   0   0   8   0   0   0   0   0   0   0   0   0   0   0   0   0   0   0   0   0   0   0   0   0   0   0   0   0   0   0  13 97 92 89 88 87 86 85 82 74 68 62 61 58 
   1   0   0   0   0   0   0   0   0   0   0   0   0   0   0   9   0   0   0   0   0   0   0   7   0   0   0   0   0   0   0  11 95 93 92 89 88 82 79 72 65 62 59 
   9   0   0   0   0   4   0   0   0   0  10   0   0   0   0   0   0   0   0   0   0   0   0   0   0   0   0   0   0   0   0  12 97 93 92 91 90 89 86 83 82 68 61 60 
   1   5   0   0   0   0   0   0   0   0   0   0   0   0   0   0   0   0   0   0   0   0   0   0   0   0   0   0   0   0   0  11 98 93 91 89 87 86 82 80 66 61 60 
  10   0   0   0   7   0   0   6   0   0   0   0   0   0   0   0   3   0   0   0   0   0   5   0   0   0   0   0   8   0   0  10 101 100 91 90 87 73 72 67 62 51 
   6   5   0   6   0   0   0   0   0   0   0   0   0   0   5   7   0   0   0   0   0   0   0   7   0   0   0   0   0   0   0  13 101 94 93 90 89 88 87 86 83 73 72 67 62 
   9   0   0   0   0   5   0   0   0   0   0   0   0   0   0   0   0   0   0   0   0   0  10   0   0   6   0   0   0   0   0  15 101 98 97 96 95 93 89 87 86 85 83 78 77 71 69 
   1   0   0   0   0   0   0   0   0   3   5   0   0   0   0   0   0   0   0   0   0   0   0   0   0   0   0   0   0   0   0  12 96 95 94 90 89 88 87 85 82 79 71 62 
  10   0   0   0   0   0   0   0   0   0   4   0   0   0   0   0   0   0   0   8   0   0   0   0   0   7   0   0   0   6   0  10 95 91 87 86 83 81 72 71 67 55 
   9   0   0   0   6   0   0   7   0   9   0   0   0   0   0   0   0   0   0   0   7   0   0   0   9   0   5   0  10   0   0   9 100 94 90 87 86 85 83 67 54 
   6   0   0   0   0   0   0   6   0   4   0   0   0   0   0   0   0   0   7   7   0   0   0   0   0   0   0   5   0   0   0  11 92 91 88 86 85 82 79 72 71 67 62 
   4   0   0   5   0   0   0   0   0   0   8   0   0   0   0   0   0   6   5   0   0   0   0   0   0   0   0   0   0   0   0  10 97 92 90 85 82 81 77 68 67 63 
   5   0   0   0   0   0   0   0   0   0   0   8   8   0   0   0   7   0   0   0   0   9   0   0   0   0   0   0   0   0   0  10 100 96 91 88 87 83 82 69 67 62 
   4   0   0  10   0   0   7   0   0   0   0   0   0   0   0   0   0   0   5   0   0   0   0   0   0   0   0   0   6   0   0   9 99 90 89 88 87 83 82 72 62 
  10   0   0   0   0   0   0   0   0   0   5   0   0   0   0   0   6   0   0   0   7   0   0   0   0   0   0   0   0   0   0   8 91 89 88 83 71 69 67 62 
   5   0   0   5   0   4   0   0   0   0   5   0   3   0   0   0   0   0   0   0   0   0   0   7   3   8   0   0   0   0   0  11 93 91 88 86 83 81 80 78 77 73 71 
   8   0   6   0   9   0   0   0   7   0   0   0   0   4  10   0   0   0   0   0   0   0   0   4   0   0   0   0   0   0   0   9 97 94 91 89 87 85 77 68 67 
   9   0   0   7   0   0   0   0   0   0   0   9   0   0   0   0   0   0   0   0   0   0  10   0   6   0   0   0   0   0   0   8 92 91 90 89 86 79 76 62 
  10   0   0   0   0   0   0   0   0   0   0   0  10   5   0   0   6   0   0   8   0   7   0   0   4   0   0   0   0   0   0   6 93 87 86 79 71 59 
   2   0   0   0   7   0   0   0   0   4   0   0   4   0   0   0   0   0   0   0   0   0   0   0   0   0   0   0   6   8   0  11 95 92 91 87 83 81 80 79 78 77 76 
   9   9   0   0   0   0   8   0   0   0   0   0   0   0   0   0   7   0   0   0   0   0   0   0   0   0   0   5   4   0   0   8 88 86 83 82 80 79 77 67 
   1   0   3   0   8   0   7   6   0  10   9   0   0   0  10   0   0   0   0   0   0   0   0   0   0   0   0   0   7   9   0   6 85 79 77 74 73 67 
   2   0   0   0   0   8   0   0   0   0   0   0   0   0   0   0   0   0   0   0   0  10   6   0   0   0   0   0   0   0   0   8 92 83 82 80 79 78 77 71 
   9   0   0   0   0   0   0   0   0   0   0   0   0   0   0   0   0   0   0   0   8   0   0   0   8   0   0   0   0   0  10   7 88 85 82 80 77 71 67 
   8   0   0   0   0   0   0   0   9   0   0   0   6   0   0   0   0   9   0   0   0   0   5   0   0   0   0   0   0   0   0   6 96 82 79 77 71 67 
   2   0   0   9   0   0   0   0   0   0   0   0   0   0   0   0   4   0   0   0   0   0   0   0   0   0   0   0  10   0   0   4 88 79 76 62 
   9   0   0   0   0   0   0   0   0   0   0   0   0   0   0   0   0   0   0   6   0   3   0   0   0   0  10   0   0   0   0   7 85 82 80 79 78 77 76 
   4   0   0   0   0   0   0   0   0   0   0   0   0   0   0   0   0   0   0   4   0  10   0   0   4   0   0   0   0   0   0   6 90 85 81 79 77 71 
   2   0   0   0   0   0   4   0   0   0   6   0   0   8   0   0   0   0   0   0   0   0   0   0   0   0   0   9   0   0   0   6 85 83 82 81 79 72 
   3   0   0   0   0   0   0   0   0   0   0   0   0   0   0   0   0   0   0   0   0   0   0   0   0   3   0   8   0   0   0   4 83 81 77 67 
   2   0   0   0   0   0   0   0   0   0   0   0   0   0   0   0  10   0   0   0   0   6   0   0   0   0   0   0   0   0   6   4 85 80 77 67 
   3   0   0   0   6   0   0   7   0   0   0   0   7   0   0   0   0   7   0   0   0   0   0   0   0   4   0   0   0   0   0   4 81 79 78 71 
   8   0   0   0   0   0   0   0   0   0   0   0   0   0   0   7   0   0   0   0   0   0   0   0   0   0   0   0   0   0   0   3 81 77 67 
   9   0   0   4   0   0   7   0   0   0   0   0   0   0   0   0   0   0   0   0   0   8   0   0   0   0   0   0   0   0   0   4 81 80 78 77 
  10   0   0   5   4   9   0   0   8   0   5   0   0   0   0   0   0   0   0   0   0   4   0   0   0   0   0   0   8   0   0   4 87 86 79 76 
   2   0   5   0   0   0   0   0   0   0   5   0   0   0   0   0   0   0  10   0   0   0   0   0   0   0   0   0   0   0   0   4 94 90 89 77 
   2   9   0   0   0   0   0   0   0   0   9   0   4   0   0   0   0   0  10   0   0   0   0   5   0   0   0   0   0   0   0   4 90 86 84 76 
  10   0   0   0   0   0   0   0   0   0   0   6   0   7   6   0   0   0   0   0   0   0   0   0   0   0   0   0   0   0   4   3 92 83 79 
  10   0   0   0   0   5   0   0   0   0   0  10   0   0   6   6   0   0   0   0   0   0   0   0   0   0   0   0   0   0   0   2 78 76 
   4   0   0   0   0   0   0   0   0   0   0   0   0   0   0   0   0   8   0   0   0   0   0   0   0   7   0   0   0   0   8   2 80 79 
   4   0   0   0   0   0   0   0   0   0   0   0   0   0   0   0   0   6   6   0   0   0   0   0   0   9   0   0   4   8   0   2 79 76 
   5   0   0   6   0   9   0   8   0   0   0   0   0   0   0   0   0   4   0   0   0   3   0   0   0   0   5   0   0   0   0   2 82 80 
   5   0   0   0   0   5   0   0   0   0   0   7   0   0   0   0   0   0   0   0   0   6   0   0   0   0   1   6   0   0   0   1 76 
  10   6   0   0   0   0   0   0   0   0   0   0   0   0   0   0   0   0   0   0   0   2   5   4   6   0   0   0   0   0   0   1 76 
   3   0  10   0   0   0   0   0   0   0   0   0   0   0   0   0   0   0   0   0   0   0   0   0   0   0   0   0   0   0   0   1 82 
   3   0   0   0   0   0   0   0   7   0   0   0   0   0   0   0   0   0   0   5   0   0   0   0  10   0   0   0   0   0   0   1 83 
   1   0   0   7   0   0   0   0   0   0   0   0   0   0   0   0   0   7   0   7   0   0   0   0   0   0   0   0   0   0   0   1 81 
   4   0   0   0   0   0   0   0   0   0   0   3   0   0   0   0   8   0   0   0   0   0   0   0   0   0   0   0   0   0   0   1 102
   5   0   6   0   0   5   0   0   0   0   0   0   7   0   0   0   0   0   0   0   0   0   0   0   0   0   8   0   0   0   0   1 102
   8   0   0   0   0   0   0   0   0   9   0   0   0   0   0   6   0   0   0   0   0   7   0   0   0   6   0   0   0   0   7   1 102
   2   0   0   0   0   0   0   0   0   6   0   0   0   0   0   0   0   0   0   0   0   0   0   0   0   0   5   0   0   0   0   1 102
  10   0   0   0   0   0   0   0   0   0   0   0   0   0   4   0   0   0   0   0   0   0   0   0   0   6   0   0   0   0   0   1 102
   1   0   7   0   0   0   9   0   0   0   8   0   0   8   0   0   0   0   0   0   0   0   0   0   0   0   0   0   0   0   0   1 102
   1   0   0   0   0   0   3   0   0   0   0   0   0   0   0   6   0   0   0   0   0   0   0   0   0  10   0   0   0   0   0   1 102
   6   0   0   0   0   0   0   0   0   0  10   0   0   0   0   0   0   0   0   7   0   0   0   0   0   0   0   0   5   0  10   1 102
   5   6   0   6   0   0   0   0   0   0   0   0   0   0   0   0   0   0   0   0   0   0   0   0   0   0   0   0   3   5   0   1 102
  10   0   0   0   0   5   0   0   2   0   0   0   0   0   5   0   0   0   0   0   0   0   9   0   0   4   0   0   0   0   0   1 102
   4   0   0   0   0   0   0   0   6   0   0   0   0   0   0   0   0   9   0   0   5   6   0   6   0   0   0   0   0   5   0   1 102
   8   0   0   0   0   0   0   0   0   0   0   4  10   0   0   0   0   0   0   0   0   0   0   8   8   0   0   6   0   0   0   1 102
  10   6   0   0   0   0   0   0   0   0   6   0   0   0   0   0   0   0   0   0   0   0   0   0   0   0   0   0   0   0   0   1 102
   2   0   0   0   6   0   0   5   0   0   0   0   0   0   0   4   0   6   0   0   0   0   0   0   0   0   0   0   0   0   0   1 102
   4   0   0   0   0   6   0   0   0   8   0   0   0   0   0   0   0  10   0   0   0   0   0   0   0   0   0   4   0   0   2   1 102
   5   0   0   0   0   0   0   0   0   0   0   0   0   0   0   0   0   0   0   0   0   0   4   0   0   8   0   0   0   0   0   1 102
  10   0   0   0   0   0   0   0   8   0   0   3   0   0   0   0   0   0   0   0   0  10   3   0   0   0   0   0   0   0   0   1 102
   9   0   0   0   0   0   0   0   0   0   0   0   0   9   0   0   0   0   0   0   7   0  10   0   0   0   8   0   0   0   0   1 102
   9   0   0   0   8   0   0   0   0   0   7   0   0   0   4   0   0   0   0   0   0   0   0   0   0   0   3   8   6   0   0   1 102
  10   0   0   0   0   0   0   6   0   0   0   0   0   0   0   0   0   0   0   0   0   0   0   0   0   0   5   0   0   0   0   1 102
   3   0   0   0   5   0   0  10   0   0   0   5   0   0   0   0   0   0   0   0   0   0   3   0   0   6   0   0   6   0   0   1 102
   7   0   0   0   0   0   4   0   0   0   0   0   0   0   0   0   0   0   0   0   0   0   0   0   0   0   0   0   0   0   0   1 102
   2   0   0   0   0   0  10   0   0   0   0   0   0   0   0   0   0   0   0   0   0   0   0   0   0   0   0   0   0   0   4   1 102
   3   0   0   0   0   0   0   0   0   8   0   0   3   0   0   0   0   0   0   0   0   0   0   0   0   5   0   0   0   0   0   1 102
   6   0   0   0   0   0   0   0   0   0   0   0   0   0   0   0   7   0   0   5   0   0   0   0   0   0   8   0   4   0   0   1 102
   5   0  10   0   0   0   0   0   0   0   3   0   6   0   0   0   0   5   0   8   0   0   0   0   0   6   0   0   0   0   0   1 102
   0   0   0   0   0   0   0   0   0   0   0   0   0   0   0   0   0   0   0   0   0   0   0   0   0   0   0   0   0   0   0   0 
